NAME: SN_124.hcp
COMMENT: 
TYPE: HCP
DIMENSION: 124
EDGE_DATA_FORMAT : EDGE_LIST
EDGE_DATA_SECTION
1 3
1 5
1 122
2 3
2 6
2 121
3 1
3 2
3 4
4 3
4 8
4 124
5 1
5 7
5 9
6 2
6 7
6 10
7 5
7 6
7 8
8 4
8 7
8 12
9 5
9 11
9 13
10 6
10 11
10 14
11 9
11 10
11 12
12 8
12 11
12 16
13 9
13 15
13 17
14 10
14 15
14 18
15 13
15 14
15 16
16 12
16 15
16 20
17 13
17 19
17 21
18 14
18 19
18 22
19 17
19 18
19 20
20 16
20 19
20 24
21 17
21 23
21 25
22 18
22 23
22 26
23 21
23 22
23 24
24 20
24 23
24 28
25 21
25 27
25 29
26 22
26 27
26 30
27 25
27 26
27 28
28 24
28 27
28 32
29 25
29 31
29 33
30 26
30 31
30 34
31 29
31 30
31 32
32 28
32 31
32 36
33 29
33 35
33 37
34 30
34 35
34 38
35 33
35 34
35 36
36 32
36 35
36 40
37 33
37 39
37 41
38 34
38 39
38 42
39 37
39 38
39 40
40 36
40 39
40 44
41 37
41 43
41 45
42 38
42 43
42 46
43 41
43 42
43 44
44 40
44 43
44 48
45 41
45 47
45 49
46 42
46 47
46 50
47 45
47 46
47 48
48 44
48 47
48 52
49 45
49 51
49 53
50 46
50 51
50 54
51 49
51 50
51 52
52 48
52 51
52 56
53 49
53 55
53 57
54 50
54 55
54 58
55 53
55 54
55 56
56 52
56 55
56 60
57 53
57 59
57 61
58 54
58 59
58 62
59 57
59 58
59 60
60 56
60 59
60 64
61 57
61 63
61 65
62 58
62 63
62 66
63 61
63 62
63 64
64 60
64 63
64 68
65 61
65 67
65 69
66 62
66 67
66 70
67 65
67 66
67 68
68 64
68 67
68 72
69 65
69 71
69 73
70 66
70 71
70 74
71 69
71 70
71 72
72 68
72 71
72 76
73 69
73 75
73 77
74 70
74 75
74 78
75 73
75 74
75 76
76 72
76 75
76 80
77 73
77 79
77 81
78 74
78 79
78 82
79 77
79 78
79 80
80 76
80 79
80 84
81 77
81 83
81 85
82 78
82 83
82 86
83 81
83 82
83 84
84 80
84 83
84 88
85 81
85 87
85 89
86 82
86 87
86 90
87 85
87 86
87 88
88 84
88 87
88 92
89 85
89 91
89 93
90 86
90 91
90 94
91 89
91 90
91 92
92 88
92 91
92 96
93 89
93 95
93 97
94 90
94 95
94 98
95 93
95 94
95 96
96 92
96 95
96 100
97 93
97 99
97 101
98 94
98 99
98 102
99 97
99 98
99 100
100 96
100 99
100 104
101 97
101 103
101 105
102 98
102 103
102 106
103 101
103 102
103 104
104 100
104 103
104 108
105 101
105 107
105 109
106 102
106 107
106 110
107 105
107 106
107 108
108 104
108 107
108 112
109 105
109 111
109 113
110 106
110 111
110 114
111 109
111 110
111 112
112 108
112 111
112 116
113 109
113 115
113 117
114 110
114 115
114 118
115 113
115 114
115 116
116 112
116 115
116 120
117 113
117 119
117 121
118 114
118 119
118 122
119 117
119 118
119 120
120 116
120 119
120 124
121 2
121 117
121 123
122 1
122 118
122 123
123 121
123 122
123 124
124 4
124 120
124 123
20 68
68 20
-1
EOF